(declare-fun e () String)
(declare-fun c () String)
(declare-fun g () String)
(declare-fun b () String)
(declare-fun d () String)
(declare-fun f () String)
(declare-fun a () String)
(declare-fun h () String)
(assert (= (str.++ a f "d") (str.++ "ad" c "g" h a)))
(assert (= (str.++ c e) h))
(assert (= (str.++ d "h") (str.++ e "g" g "e" b "h")))

(check-sat)
